
%FILE DATA:	Soccer Computational Problem for MiniZinc Models	%
%AUTHOR:	Jack Wall	%
%CONTACT:  	116397063@umail.ucc.ie			%
%LAST UPDATE:	01/29/2020, 10:18:06						%
%DESCRIPTION: 	-8 games played with 56 games left				%

n=8; %number of teams

%Games to play
games=[|6,2|2,4|6,3|7,8|6,8|8,4|6,4|2,5|1,2|1,4|7,3|3,4|4,3|2,3|3,8|2,7|1,6|7,5|4,8|5,1|5,6|5,4|7,4|7,1|6,7|7,2|4,2|3,2|3,6|1,5|8,5|8,7|8,6|7,6|4,5|1,7|5,8|8,2|6,5|1,3|8,1|5,7|3,5|6,1|2,8|2,6|3,1|4,6|5,3|2,1|4,1|4,7|5,2|1,8|8,3|3,7|];

%Initial points
iPoints=];

%POSITION CONSTRAINTS
% [|teamID, operator, position|...]
% operators index:
%  1 for =  operator
%  2 for >  operator
%  3 for >= operator
%  4 for <  operator
%  5 for <= operator
positionConstraints=[|7,4,2|4,4,3|];